(declare-fun it6727 () Int)
(declare-fun it6664 () Int)
(declare-fun it6597 () Int)
(declare-fun i15 () Int)
(declare-fun i19 () Int)
(declare-fun i11 () Int)
(declare-fun it6728 () Int)
(declare-fun i3 () Int)
(assert (let ((a!1 (not (<= (+ i11 (* (- 1) i19) (* (- 2) i15)) 2)))
      (a!2 (+ i11
              (* (- 1) i19)
              (* (- 2) i15 (exp 2 (+ (- 1) it6597)))
              (* (- 4) (exp 2 (+ (- 1) it6597)))))
      (a!3 (not (<= (+ i11 (* (- 1) i19) (* (- 2) i15)) 3)))
      (a!4 (+ i11
              (* (- 1) i19)
              (* (- 2) i15 (exp 2 (+ (- 1) it6597 it6664)))
              (* (- 4) (exp 2 (+ (- 1) it6597 it6664)))
              (* 2 (exp 2 (+ (- 1) it6664)))))
      (a!5 (+ i19
              (* (- 1) i11)
              (* 2 (exp 2 (+ (- 1) it6664)))
              (* i15 (exp 2 (+ it6664 it6597)))
              (exp 2 (+ 1 it6664 it6597))
              (* (- 2) (exp 2 it6664))))
      (a!6 (= (+ i11
                 (* (- 1) i19)
                 (* (- 2) i15 (exp 2 it6597))
                 (* (- 4) (exp 2 it6597)))
              (- 1)))
      (a!7 (* (- 2) (* i15 (exp 2 (+ it6664 it6597)))))
      (a!9 (+ i11
              (* (- 1) i19)
              (* (- 4) (exp 2 (+ (- 1) it6727)))
              (* (- 2) i15 (exp 2 (+ (- 1) it6727 it6664 it6597)))
              (* (- 2) (exp 2 (+ it6664 it6597 it6727)))
              (exp 2 (+ it6664 it6727))
              (exp 2 it6727)))
      (a!10 (+ i11
               (* (- 1) i19)
               (* (- 4) (exp 2 (+ (- 1) it6727 it6728)))
               (* 2 (exp 2 (+ (- 1) it6728)))
               (* (- 2) i15 (exp 2 (+ (- 1) it6727 it6728 it6664 it6597)))
               (* (- 2) (exp 2 (+ it6664 it6597 it6727 it6728)))
               (exp 2 (+ it6664 it6727 it6728))
               (exp 2 (+ it6728 it6727))))
      (a!11 (+ i19
               (* (- 1) i11)
               (* 2 (exp 2 (+ (- 1) it6728)))
               (exp 2 (+ 1 it6728 it6727))
               (* (- 2) (exp 2 it6728))
               (* i15 (exp 2 (+ it6664 it6597 it6727 it6728)))
               (exp 2 (+ 1 it6664 it6597 it6728 it6727))
               (* (- 1) (exp 2 (+ it6664 it6727 it6728)))
               (* (- 1) (exp 2 (+ it6728 it6727)))))
      (a!12 (+ i11
               (* (- 1) i19)
               (* (- 4) (exp 2 it6727))
               (* (- 2) i15 (exp 2 (+ it6664 it6597 it6727)))
               (* (- 2) (exp 2 (+ 1 it6727 it6664 it6597)))
               (exp 2 (+ 1 it6664 it6727))
               (exp 2 (+ 1 it6727)))))
(let ((a!8 (+ i11
              (* (- 1) i19)
              a!7
              (* (- 2) (exp 2 (+ 1 it6664 it6597)))
              (* 2 (exp 2 it6664)))))
  (and (not (<= it6597 0))
       a!1
       (not (<= a!2 (- 2)))
       a!3
       (not (<= a!2 (- 1)))
       (= i3 28)
       (not (<= it6664 0))
       (not (<= a!4 0))
       (not (<= a!5 (- 2)))
       a!6
       (not (<= it6727 0))
       (not (<= a!8 0))
       (not (<= a!9 (- 2)))
       (not (<= a!8 1))
       (not (<= a!9 (- 1)))
       (not (<= it6728 0))
       (not (<= a!10 0))
       (not (<= a!11 (- 2)))
       (= a!12 (- 1))))))
(check-sat)